there are 20 jobs and 15 machines.
15 20
Fernando formulation selected
Academic license - for non-commercial use only
Number of variables: 182011
restriction inicio_maquina added
restriction fluxo_maquina added
0 0
9 1
3 2
14 3
12 4
10 5
6 6
11 7
8 8
1 9
11 10
6 11
14 12
8 13
8 14
8 15
14 16
11 17
11 18
2 19
restriction inicio_espera added
restriction fluxo_espera added
ultimo_tempo constraints created
makespan constraints created
Optimize a model with 96320 rows, 182011 columns and 536625 nonzeros
Coefficient statistics:
  Matrix range     [1e+00, 7e+02]
  Objective range  [1e+00, 1e+00]
  Bounds range     [1e+00, 1e+00]
  RHS range        [1e+00, 1e+00]

Concurrent LP optimizer: dual simplex and barrier
Showing barrier log only...

Presolve removed 7058 rows and 7073 columns
Presolve time: 1.21s
Presolved: 89262 rows, 174938 columns, 523469 nonzeros

Elapsed ordering time = 5s
Elapsed ordering time = 6s
Elapsed ordering time = 8s
Ordering time: 9.56s

Barrier statistics:
 AA' NZ     : 5.915e+05
 Factor NZ  : 6.754e+07 (roughly 700 MBytes of memory)
 Factor Ops : 3.291e+11 (roughly 17 seconds per iteration)
 Threads    : 1

                  Objective                Residual
Iter       Primal          Dual         Primal    Dual     Compl     Time
   0   3.54962645e+03 -3.01273000e+04  1.75e+04 0.00e+00  6.99e+00    29s
   1   6.28619750e+02 -2.35578642e+04  1.03e+03 2.51e-15  4.75e-01    46s
   2   6.00511413e+02 -1.30728609e+04  2.10e+02 1.49e-14  1.13e-01    63s
   3   6.39162119e+02 -6.11580358e+03  6.49e+01 1.93e-14  3.72e-02    81s
   4   6.30397807e+02 -1.93268566e+03  3.00e+01 1.90e-14  1.39e-02   100s
   5   6.13604279e+02 -4.00292300e+02  1.94e+01 1.88e-14  6.55e-03   117s
   6   5.92941149e+02 -9.02023558e+01  1.08e+01 2.08e-14  3.87e-03   136s
   7   5.68466669e+02  2.36728655e+02  4.07e+00 2.44e-14  1.60e-03   153s
   8   5.50280442e+02  3.84638651e+02  1.93e+00 2.39e-14  7.39e-04   170s
   9   5.36741981e+02  4.49924235e+02  7.76e-01 2.70e-14  3.45e-04   187s
  10   5.31045705e+02  4.87609318e+02  4.24e-01 2.80e-14  1.74e-04   204s
  11   5.27684053e+02  5.06802212e+02  1.74e-01 2.57e-14  8.03e-05   223s
  12   5.25500444e+02  5.13956509e+02  8.84e-02 3.00e-14  4.35e-05   240s
  13   5.24373757e+02  5.18488321e+02  5.04e-02 2.82e-14  2.29e-05   258s
  14   5.23724484e+02  5.20018123e+02  2.69e-02 2.88e-14  1.39e-05   276s
  15   5.23051646e+02  5.21532183e+02  7.88e-03 2.82e-14  5.34e-06   294s
  16   5.22704689e+02  5.22360119e+02  1.76e-03 3.47e-14  1.21e-06   315s
  17   5.22567765e+02  5.22527441e+02  8.38e-05 3.15e-14  1.26e-07   335s
  18   5.22551220e+02  5.22544957e+02  7.69e-06 3.19e-14  1.89e-08   356s
  19   5.22548750e+02  5.22547576e+02  9.85e-07 2.79e-14  3.49e-09   377s
  20   5.22548369e+02  5.22548068e+02  1.75e-07 3.00e-14  8.83e-10   396s
  21   5.22548280e+02  5.22548248e+02  1.63e-08 2.71e-14  9.24e-11   416s
  22   5.22548268e+02  5.22548265e+02  4.73e-09 3.16e-14  1.08e-11   437s

Barrier solved model in 22 iterations and 436.93 seconds
Optimal objective 5.22548268e+02

Crossover log...

   37487 variables added to crossover basis                      440s
   39207 variables added to crossover basis                      445s

   49068 DPushes remaining with DInf 2.6703137e+01               449s
   20541 DPushes remaining with DInf 1.1158704e+01               460s
    8540 DPushes remaining with DInf 6.1938276e+00               467s
    3569 DPushes remaining with DInf 4.9948278e+00               470s
     522 DPushes remaining with DInf 3.1040985e+02               475s
      82 DPushes remaining with DInf 2.1195739e+03               481s
       0 DPushes remaining with DInf 0.0000000e+00               482s

    8615 PPushes remaining with PInf 1.2087608e-03               482s
     901 PPushes remaining with PInf 2.9049987e-02               490s
     165 PPushes remaining with PInf 2.5316947e-02               495s
       0 PPushes remaining with PInf 9.5736652e-03               496s

  Push phase complete: Pinf 9.5736652e-03, Dinf 2.6189079e+05    496s

Iteration    Objective       Primal Inf.    Dual Inf.      Time
   57686    5.2254832e+02   0.000000e+00   2.618908e+05    497s
   58131    5.2254806e+02   0.000000e+00   8.115822e+02    502s
   58572    5.2254806e+02   0.000000e+00   7.046913e+03    506s
   59009    5.2254805e+02   0.000000e+00   1.136852e+03    511s
   59646    5.2254805e+02   0.000000e+00   1.456782e+03    517s
   59836    5.2254804e+02   0.000000e+00   3.677317e+03    520s
   60196    5.2254804e+02   0.000000e+00   1.268531e+03    525s
   60516    5.2254804e+02   0.000000e+00   4.089320e+02    530s
   60876    5.2254803e+02   0.000000e+00   9.563205e+01    536s
   61226    5.2254803e+02   0.000000e+00   2.440563e+02    541s
   61576    5.2254803e+02   0.000000e+00   8.537376e+02    546s
   61936    5.2254803e+02   0.000000e+00   9.198093e+00    551s
   62286    5.2254803e+02   0.000000e+00   3.004564e+00    556s
   62676    5.2254803e+02   0.000000e+00   3.196310e-01    561s
   63082    5.2254827e+02   4.263030e+00   0.000000e+00    567s
   63458    5.2254827e+02   0.000000e+00   2.431710e-03    573s
   63514    5.2254827e+02   0.000000e+00   1.012542e-05    575s
Extra one simplex iteration after uncrush
   63515    5.2254827e+02   0.000000e+00   0.000000e+00    576s

Solved with barrier
Solved in 63515 iterations and 575.84 seconds
Optimal objective  5.225482676e+02
idxRow 96300 name: 

C: 523 soma: 551.56 soma - C: 28.5604
lp_add_row: repeated name: fim(1). previous use was index 96300
idxRow 96301 name: 

C: 523 soma: 590.203 soma - C: 67.2032
lp_add_row: repeated name: fim(2). previous use was index 96301
idxRow 96302 name: 

C: 523 soma: 566.826 soma - C: 43.8263
lp_add_row: repeated name: fim(3). previous use was index 96302
idxRow 96303 name: 

C: 523 soma: 565.732 soma - C: 42.7317
lp_add_row: repeated name: fim(4). previous use was index 96303
idxRow 96304 name: 

C: 523 soma: 565.314 soma - C: 42.3139
lp_add_row: repeated name: fim(5). previous use was index 96304
idxRow 96305 name: 

C: 523 soma: 585.363 soma - C: 62.3627
lp_add_row: repeated name: fim(6). previous use was index 96305
idxRow 96306 name: 

C: 523 soma: 576.022 soma - C: 53.0224
lp_add_row: repeated name: fim(7). previous use was index 96306
idxRow 96307 name: 

C: 523 soma: 581.502 soma - C: 58.5022
lp_add_row: repeated name: fim(8). previous use was index 96307
idxRow 96308 name: 

C: 523 soma: 595.377 soma - C: 72.3768
lp_add_row: repeated name: fim(9). previous use was index 96308
idxRow 96309 name: 

C: 523 soma: 551.458 soma - C: 28.4581
lp_add_row: repeated name: fim(10). previous use was index 96309
idxRow 96310 name: 

C: 523 soma: 567.43 soma - C: 44.4298
lp_add_row: repeated name: fim(11). previous use was index 96310
idxRow 96311 name: 

C: 523 soma: 556.195 soma - C: 33.1945
lp_add_row: repeated name: fim(12). previous use was index 96311
idxRow 96312 name: 

C: 523 soma: 566.64 soma - C: 43.6405
lp_add_row: repeated name: fim(13). previous use was index 96312
idxRow 96313 name: 

C: 523 soma: 552.523 soma - C: 29.5226
lp_add_row: repeated name: fim(14). previous use was index 96313
idxRow 96314 name: 

C: 523 soma: 570.436 soma - C: 47.4362
lp_add_row: repeated name: fim(15). previous use was index 96314
idxRow 96315 name: 

C: 523 soma: 566.254 soma - C: 43.2541
lp_add_row: repeated name: fim(16). previous use was index 96315
idxRow 96316 name: 

C: 523 soma: 557.6 soma - C: 34.5997
lp_add_row: repeated name: fim(17). previous use was index 96316
idxRow 96317 name: 

C: 523 soma: 592.204 soma - C: 69.2044
lp_add_row: repeated name: fim(18). previous use was index 96317
idxRow 96318 name: 

C: 523 soma: 573.59 soma - C: 50.5904
lp_add_row: repeated name: fim(19). previous use was index 96318
idxRow 96319 name: 

C: 523 soma: 557.57 soma - C: 34.5705
lp_add_row: repeated name: fim(20). previous use was index 96319
Optimize a model with 96320 rows, 182011 columns and 536625 nonzeros
Coefficient statistics:
  Matrix range     [1e+00, 7e+02]
  Objective range  [1e+00, 1e+00]
  Bounds range     [1e+00, 1e+00]
  RHS range        [1e+00, 1e+00]

Concurrent LP optimizer: dual simplex and barrier
Showing barrier log only...

Presolve removed 7058 rows and 7073 columns
Presolve time: 1.04s
Presolved: 89262 rows, 174938 columns, 523469 nonzeros

Elapsed ordering time = 5s
Elapsed ordering time = 6s
Elapsed ordering time = 8s
Ordering time: 9.29s

Barrier statistics:
 AA' NZ     : 5.915e+05
 Factor NZ  : 6.754e+07 (roughly 700 MBytes of memory)
 Factor Ops : 3.291e+11 (roughly 18 seconds per iteration)
 Threads    : 1

                  Objective                Residual
Iter       Primal          Dual         Primal    Dual     Compl     Time
   0   2.11565626e+03 -3.44057000e+04  1.10e+04 0.00e+00  5.78e+00    28s
   1   4.87313420e+02 -2.07059392e+04  5.58e+02 3.30e-15  3.44e-01    46s
   2   6.03517832e+02 -1.19778091e+04  1.59e+02 1.81e-14  1.07e-01    63s
   3   6.19472817e+02 -5.59462749e+03  4.97e+01 1.06e-13  3.54e-02    81s
   4   6.19657380e+02 -2.65223408e+03  2.78e+01 4.30e-14  1.78e-02    98s
   5   6.12942337e+02 -7.74784804e+02  1.28e+01 2.01e-14  7.36e-03   117s
   6   6.07661680e+02 -2.96867291e+02  8.42e+00 2.30e-14  4.64e-03   134s
   7   5.98057607e+02  2.02521014e+02  2.92e+00 2.72e-14  1.75e-03   152s
   8   5.84048933e+02  4.07532261e+02  6.11e-01 2.56e-14  6.14e-04   171s
   9   5.74323458e+02  5.01433084e+02  2.12e-01 2.97e-14  2.37e-04   190s
  10   5.66760246e+02  5.49590289e+02  3.18e-02 3.47e-14  5.25e-05   210s
  11   5.63841655e+02  5.54717913e+02  1.17e-02 2.71e-14  2.73e-05   228s
  12   5.61912201e+02  5.59501622e+02  2.07e-03 2.70e-14  7.10e-06   249s
  13   5.61286391e+02  5.60682320e+02  3.96e-04 2.53e-14  1.77e-06   271s
  14   5.61149807e+02  5.60884237e+02  1.65e-04 3.64e-14  7.76e-07   290s
  15   5.61079471e+02  5.60960091e+02  6.18e-05 2.65e-14  3.48e-07   310s
